(set-info :source |printed by MathSAT|)
(declare-fun |.x{377}| () Int)
(declare-fun |.y{39}| () Int)
(declare-fun |.y{23}| () Int)
(declare-fun |.y{40}| () Int)
(declare-fun |.y{24}| () Int)
(declare-fun |.y{41}| () Int)
(declare-fun |.x{378}| () (Array Int Int))
(declare-fun |.y{42}| () (Array Int Int))
(declare-fun |.x{381}| () Int)
(declare-fun |.y{43}| () Int)
(declare-fun |.x{382}| () (Array Int Int))
(declare-fun |.y{44}| () (Array Int Int))
(declare-fun |.x{380}| () Int)
(declare-fun |.y{45}| () Int)
(declare-fun |.x{374}| () Int)
(declare-fun |.y{46}| () Int)
(declare-fun |.y{25}| () Int)
(declare-fun |.y{47}| () Int)
(declare-fun |.y{26}| () Int)
(declare-fun |.y{48}| () Int)
(declare-fun |.y{27}| () Int)
(declare-fun |.y{49}| () Int)
(declare-fun |.y{28}| () (Array Int Int))
(declare-fun |.y{50}| () (Array Int Int))
(declare-fun |.y{29}| () (Array Int Int))
(declare-fun |.y{51}| () (Array Int Int))
(declare-fun |.y{30}| () (Array Int Int))
(declare-fun |.y{52}| () (Array Int Int))
(declare-fun |.y{31}| () (Array Int Int))
(declare-fun |.y{53}| () (Array Int Int))
(declare-fun |.y{32}| () Int)
(declare-fun |.y{54}| () Int)
(declare-fun |.y{33}| () Int)
(declare-fun |.y{55}| () Int)
(declare-fun |.y{34}| () Int)
(declare-fun |.y{56}| () Int)
(declare-fun |.y{35}| () Int)
(declare-fun |.y{57}| () Int)
(declare-fun |.y{36}| () (Array Int Int))
(declare-fun |.y{58}| () (Array Int Int))
(declare-fun |.y{37}| () (Array Int Int))
(declare-fun |.y{59}| () (Array Int Int))
(declare-fun |.y{38}| () (Array Int Int))
(declare-fun |.y{60}| () (Array Int Int))
(declare-fun |.loc{4}| () Bool)
(declare-fun |.loc{7}| () Bool)
(declare-fun |.loc{5}| () Bool)
(declare-fun |.loc{8}| () Bool)
(declare-fun |.loc{6}| () Bool)
(declare-fun |.loc{9}| () Bool)
(declare-fun |.x{48}| () Int)
(declare-fun |.x{379}| () Int)
(declare-fun |.x{383}| () Int)
(define-fun .def_52 () Bool (! |.loc{4}| :next |.loc{7}|))
(define-fun .def_167 () Bool (not .def_52))
(define-fun .def_54 () Bool (! |.loc{5}| :next |.loc{8}|))
(define-fun .def_99 () Bool (not .def_54))
(define-fun .def_453 () Bool (and .def_99 .def_167))
(define-fun .def_56 () Bool (! |.loc{6}| :next |.loc{9}|))
(define-fun .def_135 () Bool (not .def_56))
(define-fun .def_454 () Bool (! (and .def_135 .def_453) :init true))
(define-fun .def_14 () (Array Int Int) (! |.x{378}| :next |.y{42}|))
(define-fun .def_428 () Int (select .def_14 |.x{379}|))
(define-fun .def_18 () (Array Int Int) (! |.x{382}| :next |.y{44}|))
(define-fun .def_175 () Int (select .def_18 |.x{383}|))
(define-fun .def_429 () Bool (= .def_175 .def_428))
(define-fun .def_430 () Bool (not .def_429))
(define-fun .def_106 () Int (* (- 1) |.x{379}|))
(define-fun .def_20 () Int (! |.x{380}| :next |.y{45}|))
(define-fun .def_186 () Int (+ .def_20 .def_106))
(define-fun .def_8 () Int (! |.x{377}| :next |.y{39}|))
(define-fun .def_425 () Int (+ .def_8 .def_186))
(define-fun .def_426 () Bool (= .def_425 0))
(define-fun .def_383 () Bool (<= .def_8 0))
(define-fun .def_76 () Bool (<= |.x{379}| 0))
(define-fun .def_77 () Bool (not .def_76))
(define-fun .def_421 () Bool (or .def_77 .def_383))
(define-fun .def_384 () Bool (not .def_383))
(define-fun .def_422 () Bool (and .def_384 .def_421))
(define-fun .def_91 () Bool (<= |.x{383}| 0))
(define-fun .def_92 () Bool (not .def_91))
(define-fun .def_16 () Int (! |.x{381}| :next |.y{43}|))
(define-fun .def_75 () Bool (<= .def_16 0))
(define-fun .def_218 () Bool (or .def_75 .def_92))
(define-fun .def_423 () Bool (and .def_218 .def_422))
(define-fun .def_133 () Bool (not .def_75))
(define-fun .def_424 () Bool (and .def_133 .def_423))
(define-fun .def_427 () Bool (and .def_424 .def_426))
(define-fun .def_431 () Bool (and .def_427 .def_430))
(define-fun .def_84 () Int (* (- 1) |.x{383}|))
(define-fun .def_210 () Int (+ .def_20 .def_84))
(define-fun .def_211 () Int (+ .def_16 .def_210))
(define-fun .def_212 () Bool (= .def_211 0))
(define-fun .def_432 () Bool (and .def_212 .def_431))
(define-fun .def_433 () Bool (and |.loc{7}| .def_432))
(define-fun .def_22 () Int (! |.x{374}| :next |.y{46}|))
(define-fun .def_403 () Bool (<= .def_22 .def_20))
(define-fun .def_404 () Bool (not .def_403))
(define-fun .def_434 () Bool (and .def_404 .def_433))
(define-fun .def_435 () Bool (and .def_54 .def_434))
(define-fun .def_436 () Bool (and .def_54 .def_435))
(define-fun .def_437 () Bool (and .def_167 .def_436))
(define-fun .def_192 () Bool (not |.loc{7}|))
(define-fun .def_412 () Bool (and .def_99 .def_192))
(define-fun .def_247 () Bool (= |.y{45}| 0))
(define-fun .def_413 () Bool (and .def_247 .def_412))
(define-fun .def_38 () Int (! |.y{32}| :next |.y{54}|))
(define-fun .def_361 () Bool (<= .def_38 .def_20))
(define-fun .def_414 () Bool (and .def_361 .def_413))
(define-fun .def_111 () Bool (= .def_8 |.y{39}|))
(define-fun .def_415 () Bool (and .def_111 .def_414))
(define-fun .def_204 () Bool (= .def_14 |.y{42}|))
(define-fun .def_416 () Bool (and .def_204 .def_415))
(define-fun .def_295 () Bool (= |.y{43}| .def_22))
(define-fun .def_417 () Bool (and .def_295 .def_416))
(define-fun .def_418 () Bool (and .def_52 .def_417))
(define-fun .def_30 () (Array Int Int) (! |.y{28}| :next |.y{50}|))
(define-fun .def_297 () Bool (= |.y{44}| .def_30))
(define-fun .def_419 () Bool (and .def_297 .def_418))
(define-fun .def_299 () Bool (= |.y{46}| .def_38))
(define-fun .def_420 () Bool (and .def_299 .def_419))
(define-fun .def_438 () Bool (or .def_420 .def_437))
(define-fun .def_407 () Int (select .def_18 |.x{379}|))
(define-fun .def_406 () Int (select .def_14 |.x{383}|))
(define-fun .def_408 () Bool (= .def_406 .def_407))
(define-fun .def_392 () Int (+ .def_16 .def_186))
(define-fun .def_393 () Bool (= .def_392 0))
(define-fun .def_386 () Bool (or .def_92 .def_383))
(define-fun .def_381 () Int (+ .def_8 .def_210))
(define-fun .def_382 () Bool (= .def_381 0))
(define-fun .def_385 () Bool (and .def_382 .def_384))
(define-fun .def_387 () Bool (and .def_385 .def_386))
(define-fun .def_388 () Bool (and .def_192 .def_387))
(define-fun .def_394 () Bool (and .def_388 .def_393))
(define-fun .def_78 () Bool (or .def_75 .def_77))
(define-fun .def_395 () Bool (and .def_78 .def_394))
(define-fun .def_396 () Bool (and .def_133 .def_395))
(define-fun .def_181 () Int (* (- 1) |.y{45}|))
(define-fun .def_182 () Int (+ .def_20 .def_181))
(define-fun .def_183 () Bool (= .def_182 (- 1)))
(define-fun .def_397 () Bool (and .def_183 .def_396))
(define-fun .def_398 () Bool (and .def_111 .def_397))
(define-fun .def_399 () Bool (and .def_204 .def_398))
(define-fun .def_97 () Bool (= .def_16 |.y{43}|))
(define-fun .def_400 () Bool (and .def_97 .def_399))
(define-fun .def_198 () Bool (= .def_18 |.y{44}|))
(define-fun .def_401 () Bool (and .def_198 .def_400))
(define-fun .def_402 () Bool (and .def_54 .def_401))
(define-fun .def_405 () Bool (and .def_402 .def_404))
(define-fun .def_409 () Bool (and .def_405 .def_408))
(define-fun .def_101 () Bool (= .def_22 |.y{46}|))
(define-fun .def_410 () Bool (and .def_101 .def_409))
(define-fun .def_411 () Bool (and .def_167 .def_410))
(define-fun .def_439 () Bool (or .def_411 .def_438))
(define-fun .def_440 () Bool (and |.loc{8}| .def_439))
(define-fun .def_46 () (Array Int Int) (! |.y{36}| :next |.y{58}|))
(define-fun .def_373 () Bool (= |.y{50}| .def_46))
(define-fun .def_40 () Int (! |.y{33}| :next |.y{55}|))
(define-fun .def_303 () Bool (= |.y{54}| .def_40))
(define-fun .def_368 () Bool (and .def_99 .def_303))
(define-fun .def_369 () Bool (and .def_247 .def_368))
(define-fun .def_127 () Bool (not |.loc{8}|))
(define-fun .def_370 () Bool (and .def_127 .def_369))
(define-fun .def_371 () Bool (and .def_111 .def_370))
(define-fun .def_372 () Bool (and .def_204 .def_371))
(define-fun .def_374 () Bool (and .def_372 .def_373))
(define-fun .def_375 () Bool (and |.loc{7}| .def_374))
(define-fun .def_376 () Bool (and .def_295 .def_375))
(define-fun .def_316 () Bool (<= .def_40 .def_20))
(define-fun .def_377 () Bool (and .def_316 .def_376))
(define-fun .def_378 () Bool (and .def_297 .def_377))
(define-fun .def_379 () Bool (and .def_167 .def_378))
(define-fun .def_380 () Bool (and .def_299 .def_379))
(define-fun .def_441 () Bool (or .def_380 .def_440))
(define-fun .def_362 () Bool (not .def_361))
(define-fun .def_195 () Bool (<= .def_22 0))
(define-fun .def_196 () Bool (or .def_77 .def_195))
(define-fun .def_188 () Int (+ .def_22 .def_106))
(define-fun .def_189 () Int (+ .def_20 .def_188))
(define-fun .def_190 () Bool (= .def_189 0))
(define-fun .def_348 () Bool (and .def_190 .def_196))
(define-fun .def_200 () Bool (not .def_195))
(define-fun .def_349 () Bool (and .def_200 .def_348))
(define-fun .def_350 () Bool (and .def_218 .def_349))
(define-fun .def_351 () Bool (and .def_99 .def_350))
(define-fun .def_352 () Bool (and .def_133 .def_351))
(define-fun .def_206 () Bool (= .def_38 |.y{54}|))
(define-fun .def_353 () Bool (and .def_206 .def_352))
(define-fun .def_354 () Bool (and .def_127 .def_353))
(define-fun .def_355 () Bool (and .def_183 .def_354))
(define-fun .def_356 () Bool (and .def_111 .def_355))
(define-fun .def_357 () Bool (and .def_204 .def_356))
(define-fun .def_176 () (Array Int Int) (store .def_30 |.x{379}| .def_175))
(define-fun .def_177 () Bool (= |.y{50}| .def_176))
(define-fun .def_358 () Bool (and .def_177 .def_357))
(define-fun .def_359 () Bool (and .def_212 .def_358))
(define-fun .def_360 () Bool (and .def_97 .def_359))
(define-fun .def_363 () Bool (and .def_360 .def_362))
(define-fun .def_364 () Bool (and |.loc{7}| .def_363))
(define-fun .def_365 () Bool (and .def_52 .def_364))
(define-fun .def_366 () Bool (and .def_198 .def_365))
(define-fun .def_367 () Bool (and .def_101 .def_366))
(define-fun .def_442 () Bool (or .def_367 .def_441))
(define-fun .def_443 () Bool (and .def_56 .def_442))
(define-fun .def_48 () (Array Int Int) (! |.y{37}| :next |.y{59}|))
(define-fun .def_334 () Bool (= |.y{50}| .def_48))
(define-fun .def_332 () Bool (and .def_135 .def_303))
(define-fun .def_333 () Bool (and .def_192 .def_332))
(define-fun .def_335 () Bool (and .def_333 .def_334))
(define-fun .def_42 () Int (! |.y{34}| :next |.y{56}|))
(define-fun .def_273 () Bool (<= .def_42 .def_20))
(define-fun .def_336 () Bool (and .def_273 .def_335))
(define-fun .def_337 () Bool (and .def_247 .def_336))
(define-fun .def_338 () Bool (and .def_127 .def_337))
(define-fun .def_339 () Bool (and .def_111 .def_338))
(define-fun .def_340 () Bool (and .def_204 .def_339))
(define-fun .def_285 () Bool (= |.y{55}| .def_42))
(define-fun .def_341 () Bool (and .def_285 .def_340))
(define-fun .def_342 () Bool (and .def_295 .def_341))
(define-fun .def_343 () Bool (and .def_52 .def_342))
(define-fun .def_171 () Bool (= .def_46 |.y{58}|))
(define-fun .def_344 () Bool (and .def_171 .def_343))
(define-fun .def_345 () Bool (and .def_54 .def_344))
(define-fun .def_346 () Bool (and .def_297 .def_345))
(define-fun .def_347 () Bool (and .def_299 .def_346))
(define-fun .def_444 () Bool (or .def_347 .def_443))
(define-fun .def_317 () Bool (not .def_316))
(define-fun .def_259 () Bool (and .def_171 .def_177))
(define-fun .def_310 () Bool (and .def_183 .def_259))
(define-fun .def_311 () Bool (and .def_190 .def_310))
(define-fun .def_312 () Bool (and .def_192 .def_311))
(define-fun .def_313 () Bool (and .def_97 .def_312))
(define-fun .def_314 () Bool (and .def_196 .def_313))
(define-fun .def_315 () Bool (and .def_198 .def_314))
(define-fun .def_318 () Bool (and .def_315 .def_317))
(define-fun .def_319 () Bool (and .def_99 .def_318))
(define-fun .def_320 () Bool (and .def_200 .def_319))
(define-fun .def_321 () Bool (and .def_101 .def_320))
(define-fun .def_322 () Bool (and .def_111 .def_321))
(define-fun .def_323 () Bool (and .def_204 .def_322))
(define-fun .def_324 () Bool (and .def_206 .def_323))
(define-fun .def_325 () Bool (and .def_212 .def_324))
(define-fun .def_214 () Bool (= .def_40 |.y{55}|))
(define-fun .def_326 () Bool (and .def_214 .def_325))
(define-fun .def_327 () Bool (and .def_127 .def_326))
(define-fun .def_328 () Bool (and .def_218 .def_327))
(define-fun .def_329 () Bool (and .def_133 .def_328))
(define-fun .def_330 () Bool (and .def_56 .def_329))
(define-fun .def_331 () Bool (and .def_167 .def_330))
(define-fun .def_445 () Bool (or .def_331 .def_444))
(define-fun .def_446 () Bool (and |.loc{9}| .def_445))
(define-fun .def_50 () (Array Int Int) (! |.y{38}| :next |.y{60}|))
(define-fun .def_307 () Bool (= |.y{50}| .def_50))
(define-fun .def_44 () Int (! |.y{35}| :next |.y{57}|))
(define-fun .def_287 () Bool (= |.y{56}| .def_44))
(define-fun .def_286 () Bool (and .def_171 .def_285))
(define-fun .def_288 () Bool (and .def_286 .def_287))
(define-fun .def_179 () Bool (= .def_48 |.y{59}|))
(define-fun .def_289 () Bool (and .def_179 .def_288))
(define-fun .def_290 () Bool (and |.loc{7}| .def_289))
(define-fun .def_291 () Bool (and |.loc{8}| .def_290))
(define-fun .def_292 () Bool (and .def_247 .def_291))
(define-fun .def_293 () Bool (and .def_111 .def_292))
(define-fun .def_294 () Bool (and .def_204 .def_293))
(define-fun .def_296 () Bool (and .def_294 .def_295))
(define-fun .def_298 () Bool (and .def_296 .def_297))
(define-fun .def_300 () Bool (and .def_298 .def_299))
(define-fun .def_301 () Bool (and .def_135 .def_300))
(define-fun .def_302 () Bool (and .def_54 .def_301))
(define-fun .def_304 () Bool (and .def_302 .def_303))
(define-fun .def_305 () Bool (and .def_167 .def_304))
(define-fun .def_138 () Bool (not |.loc{9}|))
(define-fun .def_306 () Bool (and .def_138 .def_305))
(define-fun .def_308 () Bool (and .def_306 .def_307))
(define-fun .def_220 () Bool (<= .def_44 .def_20))
(define-fun .def_309 () Bool (and .def_220 .def_308))
(define-fun .def_447 () Bool (or .def_309 .def_446))
(define-fun .def_274 () Bool (not .def_273))
(define-fun .def_260 () Bool (and .def_179 .def_259))
(define-fun .def_261 () Bool (and |.loc{7}| .def_260))
(define-fun .def_262 () Bool (and .def_183 .def_261))
(define-fun .def_263 () Bool (and |.loc{8}| .def_262))
(define-fun .def_264 () Bool (and .def_190 .def_263))
(define-fun .def_265 () Bool (and .def_97 .def_264))
(define-fun .def_266 () Bool (and .def_196 .def_265))
(define-fun .def_267 () Bool (and .def_198 .def_266))
(define-fun .def_268 () Bool (and .def_200 .def_267))
(define-fun .def_269 () Bool (and .def_101 .def_268))
(define-fun .def_270 () Bool (and .def_111 .def_269))
(define-fun .def_271 () Bool (and .def_204 .def_270))
(define-fun .def_272 () Bool (and .def_206 .def_271))
(define-fun .def_275 () Bool (and .def_272 .def_274))
(define-fun .def_276 () Bool (and .def_212 .def_275))
(define-fun .def_277 () Bool (and .def_214 .def_276))
(define-fun .def_216 () Bool (= .def_42 |.y{56}|))
(define-fun .def_278 () Bool (and .def_216 .def_277))
(define-fun .def_279 () Bool (and .def_218 .def_278))
(define-fun .def_280 () Bool (and .def_133 .def_279))
(define-fun .def_281 () Bool (and .def_135 .def_280))
(define-fun .def_282 () Bool (and .def_52 .def_281))
(define-fun .def_283 () Bool (and .def_54 .def_282))
(define-fun .def_284 () Bool (and .def_138 .def_283))
(define-fun .def_448 () Bool (or .def_284 .def_447))
(define-fun .def_34 () (Array Int Int) (! |.y{30}| :next |.y{52}|))
(define-fun .def_254 () Bool (= .def_34 |.y{60}|))
(define-fun .def_32 () (Array Int Int) (! |.y{29}| :next |.y{51}|))
(define-fun .def_251 () Bool (= .def_32 |.y{59}|))
(define-fun .def_249 () Bool (= .def_30 |.y{58}|))
(define-fun .def_28 () Int (! |.y{27}| :next |.y{49}|))
(define-fun .def_245 () Bool (= .def_28 |.y{57}|))
(define-fun .def_26 () Int (! |.y{26}| :next |.y{48}|))
(define-fun .def_243 () Bool (= .def_26 |.y{56}|))
(define-fun .def_24 () Int (! |.y{25}| :next |.y{47}|))
(define-fun .def_239 () Bool (= .def_24 |.y{55}|))
(define-fun .def_235 () Bool (= .def_22 |.y{54}|))
(define-fun .def_232 () Bool (= .def_20 |.y{46}|))
(define-fun .def_36 () (Array Int Int) (! |.y{31}| :next |.y{53}|))
(define-fun .def_229 () Bool (= |.y{50}| .def_36))
(define-fun .def_12 () Int (! |.y{24}| :next |.y{41}|))
(define-fun .def_71 () Bool (<= .def_28 .def_12))
(define-fun .def_230 () Bool (and .def_71 .def_229))
(define-fun .def_10 () Int (! |.y{23}| :next |.y{40}|))
(define-fun .def_228 () Bool (= |.y{39}| .def_10))
(define-fun .def_231 () Bool (and .def_228 .def_230))
(define-fun .def_233 () Bool (and .def_231 .def_232))
(define-fun .def_234 () Bool (and |.loc{8}| .def_233))
(define-fun .def_236 () Bool (and .def_234 .def_235))
(define-fun .def_237 () Bool (and .def_192 .def_236))
(define-fun .def_238 () Bool (and .def_97 .def_237))
(define-fun .def_240 () Bool (and .def_238 .def_239))
(define-fun .def_241 () Bool (and .def_99 .def_240))
(define-fun .def_242 () Bool (and .def_198 .def_241))
(define-fun .def_244 () Bool (and .def_242 .def_243))
(define-fun .def_246 () Bool (and .def_244 .def_245))
(define-fun .def_248 () Bool (and .def_246 .def_247))
(define-fun .def_250 () Bool (and .def_248 .def_249))
(define-fun .def_252 () Bool (and .def_250 .def_251))
(define-fun .def_253 () Bool (and .def_204 .def_252))
(define-fun .def_255 () Bool (and .def_253 .def_254))
(define-fun .def_256 () Bool (and .def_135 .def_255))
(define-fun .def_257 () Bool (and .def_52 .def_256))
(define-fun .def_258 () Bool (and .def_138 .def_257))
(define-fun .def_449 () Bool (or .def_258 .def_448))
(define-fun .def_221 () Bool (not .def_220))
(define-fun .def_173 () Bool (= .def_50 |.y{60}|))
(define-fun .def_170 () Bool (= .def_44 |.y{57}|))
(define-fun .def_172 () Bool (and .def_170 .def_171))
(define-fun .def_174 () Bool (and .def_172 .def_173))
(define-fun .def_178 () Bool (and .def_174 .def_177))
(define-fun .def_180 () Bool (and .def_178 .def_179))
(define-fun .def_184 () Bool (and .def_180 .def_183))
(define-fun .def_185 () Bool (and |.loc{8}| .def_184))
(define-fun .def_191 () Bool (and .def_185 .def_190))
(define-fun .def_193 () Bool (and .def_191 .def_192))
(define-fun .def_194 () Bool (and .def_97 .def_193))
(define-fun .def_197 () Bool (and .def_194 .def_196))
(define-fun .def_199 () Bool (and .def_197 .def_198))
(define-fun .def_201 () Bool (and .def_199 .def_200))
(define-fun .def_202 () Bool (and .def_101 .def_201))
(define-fun .def_203 () Bool (and .def_111 .def_202))
(define-fun .def_205 () Bool (and .def_203 .def_204))
(define-fun .def_207 () Bool (and .def_205 .def_206))
(define-fun .def_213 () Bool (and .def_207 .def_212))
(define-fun .def_215 () Bool (and .def_213 .def_214))
(define-fun .def_217 () Bool (and .def_215 .def_216))
(define-fun .def_219 () Bool (and .def_217 .def_218))
(define-fun .def_222 () Bool (and .def_219 .def_221))
(define-fun .def_223 () Bool (and .def_133 .def_222))
(define-fun .def_224 () Bool (and .def_135 .def_223))
(define-fun .def_225 () Bool (and .def_54 .def_224))
(define-fun .def_226 () Bool (and .def_167 .def_225))
(define-fun .def_227 () Bool (and .def_138 .def_226))
(define-fun .def_450 () Bool (or .def_227 .def_449))
(define-fun .def_163 () Bool (<= |.y{48}| 0))
(define-fun .def_164 () Bool (not .def_163))
(define-fun .def_160 () Bool (<= |.y{47}| 0))
(define-fun .def_161 () Bool (not .def_160))
(define-fun .def_157 () Bool (<= |.y{46}| 0))
(define-fun .def_158 () Bool (not .def_157))
(define-fun .def_153 () Bool (<= |.y{45}| 0))
(define-fun .def_154 () Bool (not .def_153))
(define-fun .def_150 () Bool (<= |.y{43}| 0))
(define-fun .def_151 () Bool (not .def_150))
(define-fun .def_147 () Bool (<= |.y{49}| 0))
(define-fun .def_148 () Bool (not .def_147))
(define-fun .def_144 () Bool (<= |.y{40}| 0))
(define-fun .def_145 () Bool (not .def_144))
(define-fun .def_142 () Bool (= |.y{41}| 0))
(define-fun .def_140 () Bool (and |.loc{7}| .def_99))
(define-fun .def_141 () Bool (and .def_111 .def_140))
(define-fun .def_143 () Bool (and .def_141 .def_142))
(define-fun .def_146 () Bool (and .def_143 .def_145))
(define-fun .def_149 () Bool (and .def_146 .def_148))
(define-fun .def_152 () Bool (and .def_149 .def_151))
(define-fun .def_155 () Bool (and .def_152 .def_154))
(define-fun .def_156 () Bool (and .def_127 .def_155))
(define-fun .def_159 () Bool (and .def_156 .def_158))
(define-fun .def_162 () Bool (and .def_159 .def_161))
(define-fun .def_165 () Bool (and .def_162 .def_164))
(define-fun .def_166 () Bool (and .def_135 .def_165))
(define-fun .def_168 () Bool (and .def_166 .def_167))
(define-fun .def_169 () Bool (and .def_138 .def_168))
(define-fun .def_451 () Bool (or .def_169 .def_450))
(define-fun .def_131 () Bool (= .def_36 |.y{53}|))
(define-fun .def_129 () Bool (= .def_34 |.y{52}|))
(define-fun .def_125 () Bool (= .def_32 |.y{51}|))
(define-fun .def_123 () Bool (= .def_30 |.y{50}|))
(define-fun .def_121 () Bool (= .def_28 |.y{49}|))
(define-fun .def_119 () Bool (= .def_26 |.y{48}|))
(define-fun .def_117 () Bool (= .def_24 |.y{47}|))
(define-fun .def_115 () Bool (= .def_20 |.y{45}|))
(define-fun .def_113 () Bool (= .def_10 |.y{40}|))
(define-fun .def_107 () Int (+ .def_16 .def_106))
(define-fun .def_108 () Int (+ .def_12 .def_107))
(define-fun .def_109 () Bool (= .def_108 0))
(define-fun .def_90 () Bool (<= .def_10 0))
(define-fun .def_95 () Bool (not .def_90))
(define-fun .def_93 () Bool (or .def_90 .def_92))
(define-fun .def_85 () Int (+ .def_12 .def_84))
(define-fun .def_86 () Int (+ .def_10 .def_85))
(define-fun .def_87 () Bool (= .def_86 0))
(define-fun .def_72 () Bool (not .def_71))
(define-fun .def_68 () (Array Int Int) (store .def_14 |.x{383}| |.x{48}|))
(define-fun .def_69 () Bool (= |.y{42}| .def_68))
(define-fun .def_63 () Int (* (- 1) |.y{41}|))
(define-fun .def_64 () Int (+ .def_12 .def_63))
(define-fun .def_65 () Bool (= .def_64 (- 1)))
(define-fun .def_60 () (Array Int Int) (store .def_18 |.x{379}| |.x{48}|))
(define-fun .def_61 () Bool (= |.y{44}| .def_60))
(define-fun .def_66 () Bool (and .def_61 .def_65))
(define-fun .def_70 () Bool (and .def_66 .def_69))
(define-fun .def_73 () Bool (and .def_70 .def_72))
(define-fun .def_79 () Bool (and .def_73 .def_78))
(define-fun .def_88 () Bool (and .def_79 .def_87))
(define-fun .def_89 () Bool (and |.loc{7}| .def_88))
(define-fun .def_94 () Bool (and .def_89 .def_93))
(define-fun .def_96 () Bool (and .def_94 .def_95))
(define-fun .def_98 () Bool (and .def_96 .def_97))
(define-fun .def_100 () Bool (and .def_98 .def_99))
(define-fun .def_102 () Bool (and .def_100 .def_101))
(define-fun .def_110 () Bool (and .def_102 .def_109))
(define-fun .def_112 () Bool (and .def_110 .def_111))
(define-fun .def_114 () Bool (and .def_112 .def_113))
(define-fun .def_116 () Bool (and .def_114 .def_115))
(define-fun .def_118 () Bool (and .def_116 .def_117))
(define-fun .def_120 () Bool (and .def_118 .def_119))
(define-fun .def_122 () Bool (and .def_120 .def_121))
(define-fun .def_124 () Bool (and .def_122 .def_123))
(define-fun .def_126 () Bool (and .def_124 .def_125))
(define-fun .def_128 () Bool (and .def_126 .def_127))
(define-fun .def_130 () Bool (and .def_128 .def_129))
(define-fun .def_132 () Bool (and .def_130 .def_131))
(define-fun .def_134 () Bool (and .def_132 .def_133))
(define-fun .def_136 () Bool (and .def_134 .def_135))
(define-fun .def_137 () Bool (and .def_52 .def_136))
(define-fun .def_139 () Bool (and .def_137 .def_138))
(define-fun .def_452 () Bool (! (or .def_139 .def_451) :trans true))
(define-fun .def_455 () Bool (and .def_52 .def_54))
(define-fun .def_456 () Bool (and .def_56 .def_455))
(define-fun .def_457 () Bool (! (not .def_456) :invar-property 0))
(assert true)
